NAME : in_house_9_14
TYPE : TSP
DIMENSION : 9
EDGE_WEIGHT_TYPE : EXPLICIT
EDGE_WEIGHT_FORMAT : UPPER_ROW
COMMENT : INVERSION_SHIFT=6
EDGE_WEIGHT_SECTION
27
61
25
8
10
79
74
23
48
12
11
81
27
38
71
19
80
73
81
80
59
25
22
57
19
9
34
71
67
8
4
79
67
56
62
65
